&FORCE_EVAL
  METHOD QS
  STRESS_TENSOR ANALYTICAL
  &PRINT
    &FORCES ON
    &END FORCES  
    &STRESS_TENSOR ON
    &END STRESS_TENSOR
  &END PRINT
  &DFT
    BASIS_SET_FILE_NAME BASIS_MOLOPT
    POTENTIAL_FILE_NAME GTH_POTENTIALS
    LSD
    &MGRID
      CUTOFF 1000
      REL_CUTOFF 80
    &END MGRID
    &QS
      EPS_DEFAULT 1.0E-13
    &END QS
    &SCF
      EPS_SCF 1.0E-5
      MAX_SCF 50
      &OUTER_SCF
        EPS_SCF 1.0E-5
        MAX_SCF 6 
      &END OUTER_SCF
      &OT
        MINIMIZER DIIS
        PRECONDITIONER FULL_SINGLE_INVERSE
      &END OT
    &END SCF
    &XC
      &XC_FUNCTIONAL PBE
      &END XC_FUNCTIONAL
      &VDW_POTENTIAL                          
         POTENTIAL_TYPE PAIR_POTENTIAL           
         &PAIR_POTENTIAL
            TYPE DFTD3                         
            REFERENCE_FUNCTIONAL PBE
            # that requires the following parameters (in external file, specified here)
            PARAMETER_FILE_NAME dftd3.dat     
            # ! cutoff raddius for the dispersion interactions
            R_CUTOFF 15                         
         &END PAIR_POTENTIAL
      &END 
    &END XC
  &END DFT
  &SUBSYS
    &CELL
      ABC LEFT FOR DPGEN
    &END CELL
    &COORD
    @include coord.xyz
    &END COORD
    &KIND Al
      BASIS_SET DZVP-MOLOPT-SR-GTH
      POTENTIAL GTH-PBE-q3 
    &END KIND
    &KIND C
      BASIS_SET DZVP-MOLOPT-SR-GTH 
      POTENTIAL GTH-PBE-q4
    &END KIND
    &KIND H
      BASIS_SET DZVP-MOLOPT-SR-GTH
      POTENTIAL GTH-PBE-q1
    &END KIND
    &KIND N
      BASIS_SET DZVP-MOLOPT-SR-GTH
      POTENTIAL GTH-PBE
    &END KIND
    &KIND O
      BASIS_SET DZVP-MOLOPT-SR-GTH
      POTENTIAL GTH-PBE-q6
    &END KIND
    &KIND F
      BASIS_SET DZVP-MOLOPT-SR-GTH
      POTENTIAL GTH-PBE-q7
    &END KIND
    &KIND Cl
      BASIS_SET DZVP-MOLOPT-SR-GTH
      POTENTIAL GTH-PBE-q7
    &END KIND
    &KIND Cu 
      BASIS_SET DZVP-MOLOPT-SR-GTH
      POTENTIAL GTH-PBE-q11
    &END KIND
    &KIND B
      BASIS_SET DZVP-MOLOPT-SR-GTH
      POTENTIAL GTH-PBE-q3
    &END KIND
  &END SUBSYS
&END FORCE_EVAL

&GLOBAL
  PROJECT DPGEN 
&END GLOBAL
